% Logging successfully configured
%%%mzn-stat: initTime=0.022980893
%%%mzn-stat: objective=924
%%%mzn-stat: nodes=973
%%%mzn-stat: restarts=0
%%%mzn-stat: peakDepth=833
%%%mzn-stat: solveTime=0.078008017
%%%mzn-stat: variables=1408
%%%mzn-stat: propagators=1077
%%%mzn-stat: failures=72
%%%mzn-stat: propagations=5533
%%%mzn-stat: nogoods=72
%%%mzn-stat: numAtomicConstraintsPropagated=0
%%%mzn-stat: circuitNumber1PropagationsTotal=579
%%%mzn-stat: circuitNumber1CircuitConflicts=35
%%%mzn-stat: circuitNumber1AlldiffConflicts=7
%%%mzn-stat: circuitNumber1TotalFixedEdgesAtConflict=2637
%%%mzn-stat: circuitNumber1NumberOfConflicts=42
%%%mzn-stat: circuitNumber1GacPrunings=1537
%%%mzn-stat: circuitNumber1PropagationsThatGacPruned=295
%%%mzn-stat: circuitNumber1TotalPruningHallSetSize=7564
%%%mzn-stat: circuitNumber1NumberOfPruningExplanations=1537
%%%mzn-stat: circuitNumber1MaxPruningHallSetSize=53
%%%mzn-stat: circuitNumber1TotalSccSizeAtPruning=4076
%%%mzn-stat: circuitNumber1NumberOfSccPruningCalls=295
%%%mzn-stat: circuitNumber1TotalVarsInvolvedInPruning=1260
%%%mzn-stat: circuitNumber1MaxValuesPrunedFromSingleVar=9
%%%mzn-stat: circuitNumber1HallCircuitChecks=1758
%%%mzn-stat: circuitNumber1HallCircuitPrunings=7
%%%mzn-stat: circuitNumber1CircuitPreventPrunings=247
%%%mzn-stat: AverageConflictSize=5.152777777777778
%%%mzn-stat: NumUnitNogoodsLearned=0
%%%mzn-stat: AverageLearnedNogoodLength=31.305555555555557
%%%mzn-stat: AverageBacktrackAmount=0
%%%mzn-stat: AverageLbd=12.597222222222221
%%%mzn-stat: 2AutonomousSearchNumBackupCalled=767
%%%mzn-stat: 2AutonomousSearchNumPredicatesRemoved=0
%%%mzn-stat: 2AutonomousSearchNumCalls=768
%%%mzn-stat: 2AutonomousSearchNumPredicatesAdded=2419
%%%mzn-stat: 2AutonomousSearchAverageSizeOfHeap=3.1497395833333335
%%%mzn-stat: 2AutonomousSearchNumAssignedPredicatesEncountered=2419
%%%mzn-stat-end
maxleg = 924;
succ = array1d(1..100,[27, 9, 6, 5, 25, 31, 8, 46, 22, 15, 26, 2, 23, 7, 28, 18, 20, 39, 12, 21, 33, 29, 55, 17, 44, 30, 19, 36, 67, 41, 47, 24, 14, 16, 11, 32, 34, 40, 52, 51, 81, 48, 63, 68, 10, 37, 54, 64, 53, 1, 62, 94, 58, 59, 71, 35, 49, 74, 50, 66, 69, 76, 92, 57, 79, 45, 65, 83, 84, 78, 73, 85, 82, 80, 60, 13, 61, 99, 88, 96, 87, 86, 75, 93, 95, 91, 97, 70, 77, 42, 3, 38, 98, 56, 4, 43, 89, 100, 72, 90]);
% time elapsed: 15.85 s
----------
%%%mzn-stat: initTime=0.022980893
%%%mzn-stat: objective=481
%%%mzn-stat: nodes=1826
%%%mzn-stat: restarts=0
%%%mzn-stat: peakDepth=833
%%%mzn-stat: solveTime=0.132987348
%%%mzn-stat: variables=1408
%%%mzn-stat: propagators=1077
%%%mzn-stat: failures=99
%%%mzn-stat: propagations=8503
%%%mzn-stat: nogoods=99
%%%mzn-stat: numAtomicConstraintsPropagated=0
%%%mzn-stat: circuitNumber1PropagationsTotal=930
%%%mzn-stat: circuitNumber1CircuitConflicts=58
%%%mzn-stat: circuitNumber1AlldiffConflicts=7
%%%mzn-stat: circuitNumber1TotalFixedEdgesAtConflict=4694
%%%mzn-stat: circuitNumber1NumberOfConflicts=65
%%%mzn-stat: circuitNumber1GacPrunings=2307
%%%mzn-stat: circuitNumber1PropagationsThatGacPruned=471
%%%mzn-stat: circuitNumber1TotalPruningHallSetSize=10509
%%%mzn-stat: circuitNumber1NumberOfPruningExplanations=2307
%%%mzn-stat: circuitNumber1MaxPruningHallSetSize=54
%%%mzn-stat: circuitNumber1TotalSccSizeAtPruning=5031
%%%mzn-stat: circuitNumber1NumberOfSccPruningCalls=471
%%%mzn-stat: circuitNumber1TotalVarsInvolvedInPruning=1931
%%%mzn-stat: circuitNumber1MaxValuesPrunedFromSingleVar=9
%%%mzn-stat: circuitNumber1HallCircuitChecks=2619
%%%mzn-stat: circuitNumber1HallCircuitPrunings=15
%%%mzn-stat: circuitNumber1CircuitPreventPrunings=378
%%%mzn-stat: AverageConflictSize=14.848484848484848
%%%mzn-stat: NumUnitNogoodsLearned=0
%%%mzn-stat: AverageLearnedNogoodLength=34.525252525252526
%%%mzn-stat: AverageBacktrackAmount=0
%%%mzn-stat: AverageLbd=18.151515151515152
%%%mzn-stat: 2AutonomousSearchNumBackupCalled=1500
%%%mzn-stat: 2AutonomousSearchNumPredicatesRemoved=0
%%%mzn-stat: 2AutonomousSearchNumCalls=1502
%%%mzn-stat: 2AutonomousSearchNumPredicatesAdded=4112
%%%mzn-stat: 2AutonomousSearchAverageSizeOfHeap=3.937416777629827
%%%mzn-stat: 2AutonomousSearchNumAssignedPredicatesEncountered=5914
%%%mzn-stat-end
maxleg = 481;
succ = array1d(1..100,[27, 9, 6, 5, 25, 31, 8, 49, 22, 15, 26, 2, 23, 7, 28, 18, 20, 39, 12, 21, 33, 29, 55, 17, 44, 30, 19, 36, 67, 41, 47, 24, 14, 16, 11, 32, 34, 40, 46, 51, 52, 48, 63, 68, 10, 35, 54, 13, 53, 1, 88, 94, 58, 59, 71, 81, 64, 74, 50, 66, 69, 76, 38, 90, 79, 45, 65, 83, 100, 78, 73, 85, 82, 57, 60, 92, 61, 99, 62, 96, 77, 86, 75, 93, 95, 91, 37, 70, 97, 98, 3, 80, 89, 56, 4, 43, 87, 84, 72, 42]);
% time elapsed: 15.89 s
----------
%%%mzn-stat: initTime=0.022980893
%%%mzn-stat: objective=323
%%%mzn-stat: nodes=62570
%%%mzn-stat: restarts=0
%%%mzn-stat: peakDepth=833
%%%mzn-stat: solveTime=92.873361762
%%%mzn-stat: variables=1408
%%%mzn-stat: propagators=1077
%%%mzn-stat: failures=46804
%%%mzn-stat: propagations=1676406
%%%mzn-stat: nogoods=46804
%%%mzn-stat: numAtomicConstraintsPropagated=0
%%%mzn-stat: circuitNumber1PropagationsTotal=322018
%%%mzn-stat: circuitNumber1CircuitConflicts=16719
%%%mzn-stat: circuitNumber1AlldiffConflicts=9
%%%mzn-stat: circuitNumber1TotalFixedEdgesAtConflict=1517668
%%%mzn-stat: circuitNumber1NumberOfConflicts=16728
%%%mzn-stat: circuitNumber1GacPrunings=645809
%%%mzn-stat: circuitNumber1PropagationsThatGacPruned=195219
%%%mzn-stat: circuitNumber1TotalPruningHallSetSize=1717532
%%%mzn-stat: circuitNumber1NumberOfPruningExplanations=645809
%%%mzn-stat: circuitNumber1MaxPruningHallSetSize=54
%%%mzn-stat: circuitNumber1TotalSccSizeAtPruning=1077851
%%%mzn-stat: circuitNumber1NumberOfSccPruningCalls=195219
%%%mzn-stat: circuitNumber1TotalVarsInvolvedInPruning=531302
%%%mzn-stat: circuitNumber1MaxValuesPrunedFromSingleVar=9
%%%mzn-stat: circuitNumber1HallCircuitChecks=719197
%%%mzn-stat: circuitNumber1HallCircuitPrunings=56613
%%%mzn-stat: circuitNumber1CircuitPreventPrunings=182126
%%%mzn-stat: AverageConflictSize=60.25200837535253
%%%mzn-stat: NumUnitNogoodsLearned=0
%%%mzn-stat: AverageLearnedNogoodLength=69.12488248867618
%%%mzn-stat: AverageBacktrackAmount=0
%%%mzn-stat: AverageLbd=50.65665327749765
%%%mzn-stat: 2AutonomousSearchNumBackupCalled=2261
%%%mzn-stat: 2AutonomousSearchNumPredicatesRemoved=0
%%%mzn-stat: 2AutonomousSearchNumCalls=2264
%%%mzn-stat: 2AutonomousSearchNumPredicatesAdded=7416
%%%mzn-stat: 2AutonomousSearchAverageSizeOfHeap=4.570671378091872
%%%mzn-stat: 2AutonomousSearchNumAssignedPredicatesEncountered=10348
%%%mzn-stat-end
maxleg = 323;
succ = array1d(1..100,[27, 9, 6, 5, 25, 31, 8, 49, 22, 15, 26, 2, 23, 7, 28, 18, 20, 39, 12, 21, 33, 29, 55, 17, 44, 30, 19, 36, 67, 41, 47, 24, 14, 16, 11, 32, 34, 40, 46, 51, 52, 48, 63, 68, 10, 35, 54, 64, 53, 61, 62, 94, 57, 59, 71, 81, 58, 74, 50, 66, 69, 76, 92, 90, 79, 45, 65, 83, 100, 78, 73, 85, 82, 80, 60, 13, 1, 99, 88, 96, 77, 86, 75, 93, 95, 91, 37, 70, 97, 98, 3, 38, 89, 56, 4, 43, 87, 84, 72, 42]);
% time elapsed: 108.63 s
----------
%%%mzn-stat: initTime=0.022980893
%%%mzn-stat: objective=315
%%%mzn-stat: nodes=63388
%%%mzn-stat: restarts=0
%%%mzn-stat: peakDepth=833
%%%mzn-stat: solveTime=92.917481702
%%%mzn-stat: variables=1408
%%%mzn-stat: propagators=1077
%%%mzn-stat: failures=46814
%%%mzn-stat: propagations=1678638
%%%mzn-stat: nogoods=46814
%%%mzn-stat: numAtomicConstraintsPropagated=0
%%%mzn-stat: circuitNumber1PropagationsTotal=322221
%%%mzn-stat: circuitNumber1CircuitConflicts=16720
%%%mzn-stat: circuitNumber1AlldiffConflicts=9
%%%mzn-stat: circuitNumber1TotalFixedEdgesAtConflict=1517765
%%%mzn-stat: circuitNumber1NumberOfConflicts=16729
%%%mzn-stat: circuitNumber1GacPrunings=646351
%%%mzn-stat: circuitNumber1PropagationsThatGacPruned=195327
%%%mzn-stat: circuitNumber1TotalPruningHallSetSize=1719020
%%%mzn-stat: circuitNumber1NumberOfPruningExplanations=646351
%%%mzn-stat: circuitNumber1MaxPruningHallSetSize=54
%%%mzn-stat: circuitNumber1TotalSccSizeAtPruning=1078386
%%%mzn-stat: circuitNumber1NumberOfSccPruningCalls=195327
%%%mzn-stat: circuitNumber1TotalVarsInvolvedInPruning=531764
%%%mzn-stat: circuitNumber1MaxValuesPrunedFromSingleVar=9
%%%mzn-stat: circuitNumber1HallCircuitChecks=719637
%%%mzn-stat: circuitNumber1HallCircuitPrunings=56617
%%%mzn-stat: circuitNumber1CircuitPreventPrunings=182216
%%%mzn-stat: AverageConflictSize=60.254005212116034
%%%mzn-stat: NumUnitNogoodsLearned=0
%%%mzn-stat: AverageLearnedNogoodLength=69.1257743410091
%%%mzn-stat: AverageBacktrackAmount=0
%%%mzn-stat: AverageLbd=50.657944204725084
%%%mzn-stat: 2AutonomousSearchNumBackupCalled=3005
%%%mzn-stat: 2AutonomousSearchNumPredicatesRemoved=0
%%%mzn-stat: 2AutonomousSearchNumCalls=3009
%%%mzn-stat: 2AutonomousSearchNumPredicatesAdded=7928
%%%mzn-stat: 2AutonomousSearchAverageSizeOfHeap=4.930874044533067
%%%mzn-stat: 2AutonomousSearchNumAssignedPredicatesEncountered=14837
%%%mzn-stat-end
maxleg = 315;
succ = array1d(1..100,[27, 9, 6, 5, 25, 31, 8, 49, 22, 15, 26, 2, 23, 7, 28, 18, 20, 39, 12, 21, 33, 29, 55, 17, 44, 30, 19, 36, 67, 41, 47, 24, 14, 16, 11, 32, 34, 40, 46, 51, 52, 48, 63, 68, 10, 35, 54, 64, 53, 89, 62, 94, 57, 59, 71, 81, 58, 74, 50, 66, 1, 76, 92, 90, 79, 45, 65, 83, 97, 78, 73, 85, 82, 80, 60, 13, 61, 99, 88, 96, 77, 86, 75, 98, 95, 91, 37, 70, 93, 100, 3, 38, 84, 56, 4, 43, 87, 42, 72, 69]);
% time elapsed: 108.68 s
----------
%%%mzn-stat: initTime=0.022980893
%%%mzn-stat: objective=298
%%%mzn-stat: nodes=64215
%%%mzn-stat: restarts=0
%%%mzn-stat: peakDepth=833
%%%mzn-stat: solveTime=92.959095037
%%%mzn-stat: variables=1408
%%%mzn-stat: propagators=1077
%%%mzn-stat: failures=46823
%%%mzn-stat: propagations=1680769
%%%mzn-stat: nogoods=46823
%%%mzn-stat: numAtomicConstraintsPropagated=0
%%%mzn-stat: circuitNumber1PropagationsTotal=322409
%%%mzn-stat: circuitNumber1CircuitConflicts=16720
%%%mzn-stat: circuitNumber1AlldiffConflicts=9
%%%mzn-stat: circuitNumber1TotalFixedEdgesAtConflict=1517765
%%%mzn-stat: circuitNumber1NumberOfConflicts=16729
%%%mzn-stat: circuitNumber1GacPrunings=646853
%%%mzn-stat: circuitNumber1PropagationsThatGacPruned=195427
%%%mzn-stat: circuitNumber1TotalPruningHallSetSize=1720400
%%%mzn-stat: circuitNumber1NumberOfPruningExplanations=646853
%%%mzn-stat: circuitNumber1MaxPruningHallSetSize=54
%%%mzn-stat: circuitNumber1TotalSccSizeAtPruning=1078869
%%%mzn-stat: circuitNumber1NumberOfSccPruningCalls=195427
%%%mzn-stat: circuitNumber1TotalVarsInvolvedInPruning=532200
%%%mzn-stat: circuitNumber1MaxValuesPrunedFromSingleVar=9
%%%mzn-stat: circuitNumber1HallCircuitChecks=720034
%%%mzn-stat: circuitNumber1HallCircuitPrunings=56621
%%%mzn-stat: circuitNumber1CircuitPreventPrunings=182299
%%%mzn-stat: AverageConflictSize=60.25718129978856
%%%mzn-stat: NumUnitNogoodsLearned=0
%%%mzn-stat: AverageLearnedNogoodLength=69.12762958375157
%%%mzn-stat: AverageBacktrackAmount=0
%%%mzn-stat: AverageLbd=50.6597612284561
%%%mzn-stat: 2AutonomousSearchNumBackupCalled=3762
%%%mzn-stat: 2AutonomousSearchNumPredicatesRemoved=0
%%%mzn-stat: 2AutonomousSearchNumCalls=3767
%%%mzn-stat: 2AutonomousSearchNumPredicatesAdded=8412
%%%mzn-stat: 2AutonomousSearchAverageSizeOfHeap=5.130342447571011
%%%mzn-stat: 2AutonomousSearchNumAssignedPredicatesEncountered=19326
%%%mzn-stat-end
maxleg = 298;
succ = array1d(1..100,[27, 9, 6, 5, 25, 31, 8, 49, 22, 15, 26, 2, 23, 7, 28, 18, 20, 39, 12, 21, 33, 29, 55, 17, 44, 30, 19, 36, 67, 41, 47, 24, 14, 16, 11, 32, 34, 40, 46, 51, 52, 48, 63, 68, 10, 35, 54, 64, 53, 89, 62, 94, 57, 59, 71, 81, 58, 74, 91, 66, 1, 76, 92, 90, 79, 45, 65, 83, 97, 78, 73, 85, 82, 80, 60, 13, 61, 99, 88, 96, 77, 86, 75, 98, 95, 3, 37, 70, 93, 100, 50, 38, 84, 56, 4, 43, 87, 42, 72, 69]);
% time elapsed: 108.74 s
----------
%%%mzn-stat: initTime=0.022980893
%%%mzn-stat: objective=274
%%%mzn-stat: nodes=65024
%%%mzn-stat: restarts=0
%%%mzn-stat: peakDepth=833
%%%mzn-stat: solveTime=92.981022082
%%%mzn-stat: variables=1408
%%%mzn-stat: propagators=1077
%%%mzn-stat: failures=46823
%%%mzn-stat: propagations=1682654
%%%mzn-stat: nogoods=46823
%%%mzn-stat: numAtomicConstraintsPropagated=0
%%%mzn-stat: circuitNumber1PropagationsTotal=322552
%%%mzn-stat: circuitNumber1CircuitConflicts=16720
%%%mzn-stat: circuitNumber1AlldiffConflicts=9
%%%mzn-stat: circuitNumber1TotalFixedEdgesAtConflict=1517765
%%%mzn-stat: circuitNumber1NumberOfConflicts=16729
%%%mzn-stat: circuitNumber1GacPrunings=647248
%%%mzn-stat: circuitNumber1PropagationsThatGacPruned=195500
%%%mzn-stat: circuitNumber1TotalPruningHallSetSize=1721722
%%%mzn-stat: circuitNumber1NumberOfPruningExplanations=647248
%%%mzn-stat: circuitNumber1MaxPruningHallSetSize=54
%%%mzn-stat: circuitNumber1TotalSccSizeAtPruning=1079225
%%%mzn-stat: circuitNumber1NumberOfSccPruningCalls=195500
%%%mzn-stat: circuitNumber1TotalVarsInvolvedInPruning=532555
%%%mzn-stat: circuitNumber1MaxValuesPrunedFromSingleVar=9
%%%mzn-stat: circuitNumber1HallCircuitChecks=720414
%%%mzn-stat: circuitNumber1HallCircuitPrunings=56628
%%%mzn-stat: circuitNumber1CircuitPreventPrunings=182343
%%%mzn-stat: AverageConflictSize=60.25718129978856
%%%mzn-stat: NumUnitNogoodsLearned=0
%%%mzn-stat: AverageLearnedNogoodLength=69.12762958375157
%%%mzn-stat: AverageBacktrackAmount=0
%%%mzn-stat: AverageLbd=50.6597612284561
%%%mzn-stat: 2AutonomousSearchNumBackupCalled=4508
%%%mzn-stat: 2AutonomousSearchNumPredicatesRemoved=0
%%%mzn-stat: 2AutonomousSearchNumCalls=4514
%%%mzn-stat: 2AutonomousSearchNumPredicatesAdded=8412
%%%mzn-stat: 2AutonomousSearchAverageSizeOfHeap=5.275808595480727
%%%mzn-stat: 2AutonomousSearchNumAssignedPredicatesEncountered=23815
%%%mzn-stat-end
maxleg = 274;
succ = array1d(1..100,[27, 9, 6, 5, 25, 31, 8, 49, 22, 15, 26, 2, 23, 7, 28, 18, 20, 39, 12, 21, 33, 29, 55, 17, 44, 30, 19, 36, 67, 41, 47, 24, 14, 16, 11, 32, 34, 40, 46, 51, 52, 64, 63, 68, 10, 35, 48, 42, 53, 3, 62, 94, 57, 59, 71, 81, 58, 74, 91, 66, 1, 76, 92, 90, 79, 45, 65, 83, 61, 78, 73, 85, 82, 80, 60, 13, 89, 99, 88, 96, 77, 86, 75, 93, 95, 54, 37, 70, 97, 100, 50, 38, 87, 56, 4, 43, 69, 84, 72, 98]);
% time elapsed: 108.76 s
----------
%%%mzn-stat: initTime=0.022980893
%%%mzn-stat: objective=248
%%%mzn-stat: nodes=65843
%%%mzn-stat: restarts=0
%%%mzn-stat: peakDepth=833
%%%mzn-stat: solveTime=93.013782509
%%%mzn-stat: variables=1408
%%%mzn-stat: propagators=1077
%%%mzn-stat: failures=46827
%%%mzn-stat: propagations=1684825
%%%mzn-stat: nogoods=46827
%%%mzn-stat: numAtomicConstraintsPropagated=0
%%%mzn-stat: circuitNumber1PropagationsTotal=322763
%%%mzn-stat: circuitNumber1CircuitConflicts=16723
%%%mzn-stat: circuitNumber1AlldiffConflicts=9
%%%mzn-stat: circuitNumber1TotalFixedEdgesAtConflict=1517867
%%%mzn-stat: circuitNumber1NumberOfConflicts=16732
%%%mzn-stat: circuitNumber1GacPrunings=647860
%%%mzn-stat: circuitNumber1PropagationsThatGacPruned=195607
%%%mzn-stat: circuitNumber1TotalPruningHallSetSize=1724266
%%%mzn-stat: circuitNumber1NumberOfPruningExplanations=647860
%%%mzn-stat: circuitNumber1MaxPruningHallSetSize=93
%%%mzn-stat: circuitNumber1TotalSccSizeAtPruning=1080101
%%%mzn-stat: circuitNumber1NumberOfSccPruningCalls=195607
%%%mzn-stat: circuitNumber1TotalVarsInvolvedInPruning=533116
%%%mzn-stat: circuitNumber1MaxValuesPrunedFromSingleVar=9
%%%mzn-stat: circuitNumber1HallCircuitChecks=720912
%%%mzn-stat: circuitNumber1HallCircuitPrunings=56635
%%%mzn-stat: circuitNumber1CircuitPreventPrunings=182411
%%%mzn-stat: AverageConflictSize=60.25233305571572
%%%mzn-stat: NumUnitNogoodsLearned=0
%%%mzn-stat: AverageLearnedNogoodLength=69.12437269096888
%%%mzn-stat: AverageBacktrackAmount=0
%%%mzn-stat: AverageLbd=50.655967710936
%%%mzn-stat: 2AutonomousSearchNumBackupCalled=5235
%%%mzn-stat: 2AutonomousSearchNumPredicatesRemoved=0
%%%mzn-stat: 2AutonomousSearchNumCalls=5242
%%%mzn-stat: 2AutonomousSearchNumPredicatesAdded=8870
%%%mzn-stat: 2AutonomousSearchAverageSizeOfHeap=5.442388401373521
%%%mzn-stat: 2AutonomousSearchNumAssignedPredicatesEncountered=28529
%%%mzn-stat-end
maxleg = 248;
succ = array1d(1..100,[27, 9, 6, 5, 25, 47, 8, 49, 22, 15, 26, 2, 23, 7, 28, 18, 20, 39, 12, 21, 33, 29, 55, 17, 44, 30, 19, 36, 67, 41, 50, 24, 14, 16, 11, 32, 34, 40, 46, 51, 52, 64, 63, 68, 10, 35, 48, 42, 53, 91, 62, 94, 57, 59, 54, 81, 58, 74, 73, 66, 1, 76, 92, 90, 79, 45, 65, 83, 61, 78, 82, 85, 71, 80, 60, 13, 89, 99, 88, 96, 77, 86, 75, 93, 95, 31, 37, 70, 97, 100, 3, 38, 87, 56, 4, 43, 69, 84, 72, 98]);
% time elapsed: 108.79 s
----------
%%%mzn-stat: initTime=0.022980893
%%%mzn-stat: objective=243
%%%mzn-stat: nodes=66619
%%%mzn-stat: restarts=0
%%%mzn-stat: peakDepth=833
%%%mzn-stat: solveTime=93.036335388
%%%mzn-stat: variables=1408
%%%mzn-stat: propagators=1077
%%%mzn-stat: failures=46827
%%%mzn-stat: propagations=1686757
%%%mzn-stat: nogoods=46827
%%%mzn-stat: numAtomicConstraintsPropagated=0
%%%mzn-stat: circuitNumber1PropagationsTotal=322908
%%%mzn-stat: circuitNumber1CircuitConflicts=16723
%%%mzn-stat: circuitNumber1AlldiffConflicts=9
%%%mzn-stat: circuitNumber1TotalFixedEdgesAtConflict=1517867
%%%mzn-stat: circuitNumber1NumberOfConflicts=16732
%%%mzn-stat: circuitNumber1GacPrunings=648242
%%%mzn-stat: circuitNumber1PropagationsThatGacPruned=195682
%%%mzn-stat: circuitNumber1TotalPruningHallSetSize=1725488
%%%mzn-stat: circuitNumber1NumberOfPruningExplanations=648242
%%%mzn-stat: circuitNumber1MaxPruningHallSetSize=93
%%%mzn-stat: circuitNumber1TotalSccSizeAtPruning=1080459
%%%mzn-stat: circuitNumber1NumberOfSccPruningCalls=195682
%%%mzn-stat: circuitNumber1TotalVarsInvolvedInPruning=533465
%%%mzn-stat: circuitNumber1MaxValuesPrunedFromSingleVar=9
%%%mzn-stat: circuitNumber1HallCircuitChecks=721285
%%%mzn-stat: circuitNumber1HallCircuitPrunings=56641
%%%mzn-stat: circuitNumber1CircuitPreventPrunings=182456
%%%mzn-stat: AverageConflictSize=60.25233305571572
%%%mzn-stat: NumUnitNogoodsLearned=0
%%%mzn-stat: AverageLearnedNogoodLength=69.12437269096888
%%%mzn-stat: AverageBacktrackAmount=0
%%%mzn-stat: AverageLbd=50.655967710936
%%%mzn-stat: 2AutonomousSearchNumBackupCalled=5950
%%%mzn-stat: 2AutonomousSearchNumPredicatesRemoved=0
%%%mzn-stat: 2AutonomousSearchNumCalls=5958
%%%mzn-stat: 2AutonomousSearchNumPredicatesAdded=8870
%%%mzn-stat: 2AutonomousSearchAverageSizeOfHeap=5.579556898288016
%%%mzn-stat: 2AutonomousSearchNumAssignedPredicatesEncountered=33243
%%%mzn-stat-end
maxleg = 243;
succ = array1d(1..100,[27, 9, 6, 5, 25, 47, 8, 49, 22, 15, 26, 2, 23, 7, 28, 18, 20, 39, 12, 21, 33, 29, 55, 17, 44, 30, 19, 36, 67, 41, 50, 24, 14, 16, 11, 32, 34, 40, 46, 51, 52, 64, 63, 68, 10, 35, 48, 42, 53, 91, 62, 94, 57, 59, 54, 81, 74, 80, 73, 66, 1, 76, 92, 90, 79, 45, 65, 83, 61, 78, 82, 85, 71, 58, 60, 13, 89, 99, 88, 96, 77, 86, 75, 93, 95, 31, 37, 70, 97, 100, 3, 38, 87, 56, 4, 43, 69, 84, 72, 98]);
% time elapsed: 108.82 s
----------
%%%mzn-stat: initTime=0.022980893
%%%mzn-stat: objective=229
%%%mzn-stat: nodes=67369
%%%mzn-stat: restarts=0
%%%mzn-stat: peakDepth=833
%%%mzn-stat: solveTime=93.05885706
%%%mzn-stat: variables=1408
%%%mzn-stat: propagators=1077
%%%mzn-stat: failures=46827
%%%mzn-stat: propagations=1688678
%%%mzn-stat: nogoods=46827
%%%mzn-stat: numAtomicConstraintsPropagated=0
%%%mzn-stat: circuitNumber1PropagationsTotal=323053
%%%mzn-stat: circuitNumber1CircuitConflicts=16723
%%%mzn-stat: circuitNumber1AlldiffConflicts=9
%%%mzn-stat: circuitNumber1TotalFixedEdgesAtConflict=1517867
%%%mzn-stat: circuitNumber1NumberOfConflicts=16732
%%%mzn-stat: circuitNumber1GacPrunings=648623
%%%mzn-stat: circuitNumber1PropagationsThatGacPruned=195757
%%%mzn-stat: circuitNumber1TotalPruningHallSetSize=1726709
%%%mzn-stat: circuitNumber1NumberOfPruningExplanations=648623
%%%mzn-stat: circuitNumber1MaxPruningHallSetSize=93
%%%mzn-stat: circuitNumber1TotalSccSizeAtPruning=1080819
%%%mzn-stat: circuitNumber1NumberOfSccPruningCalls=195757
%%%mzn-stat: circuitNumber1TotalVarsInvolvedInPruning=533813
%%%mzn-stat: circuitNumber1MaxValuesPrunedFromSingleVar=9
%%%mzn-stat: circuitNumber1HallCircuitChecks=721663
%%%mzn-stat: circuitNumber1HallCircuitPrunings=56647
%%%mzn-stat: circuitNumber1CircuitPreventPrunings=182501
%%%mzn-stat: AverageConflictSize=60.25233305571572
%%%mzn-stat: NumUnitNogoodsLearned=0
%%%mzn-stat: AverageLearnedNogoodLength=69.12437269096888
%%%mzn-stat: AverageBacktrackAmount=0
%%%mzn-stat: AverageLbd=50.655967710936
%%%mzn-stat: 2AutonomousSearchNumBackupCalled=6639
%%%mzn-stat: 2AutonomousSearchNumPredicatesRemoved=0
%%%mzn-stat: 2AutonomousSearchNumCalls=6648
%%%mzn-stat: 2AutonomousSearchNumPredicatesAdded=8870
%%%mzn-stat: 2AutonomousSearchAverageSizeOfHeap=5.70953670276775
%%%mzn-stat: 2AutonomousSearchNumAssignedPredicatesEncountered=37957
%%%mzn-stat-end
maxleg = 229;
succ = array1d(1..100,[27, 9, 6, 5, 25, 47, 8, 49, 22, 15, 26, 2, 23, 7, 28, 18, 20, 39, 12, 21, 33, 29, 55, 17, 44, 30, 19, 36, 67, 41, 50, 24, 14, 16, 11, 32, 34, 40, 46, 51, 52, 64, 63, 68, 10, 35, 48, 42, 57, 91, 62, 94, 80, 59, 54, 81, 58, 74, 73, 66, 1, 76, 92, 90, 79, 45, 65, 83, 61, 78, 82, 85, 71, 53, 60, 13, 89, 99, 88, 96, 77, 86, 75, 93, 95, 31, 37, 70, 97, 100, 3, 38, 87, 56, 4, 43, 69, 84, 72, 98]);
% time elapsed: 108.85 s
----------
%%%mzn-stat: initTime=0.022980893
%%%mzn-stat: objective=223
%%%mzn-stat: nodes=68118
%%%mzn-stat: restarts=0
%%%mzn-stat: peakDepth=833
%%%mzn-stat: solveTime=93.081531209
%%%mzn-stat: variables=1408
%%%mzn-stat: propagators=1077
%%%mzn-stat: failures=46828
%%%mzn-stat: propagations=1690634
%%%mzn-stat: nogoods=46828
%%%mzn-stat: numAtomicConstraintsPropagated=0
%%%mzn-stat: circuitNumber1PropagationsTotal=323201
%%%mzn-stat: circuitNumber1CircuitConflicts=16724
%%%mzn-stat: circuitNumber1AlldiffConflicts=9
%%%mzn-stat: circuitNumber1TotalFixedEdgesAtConflict=1517962
%%%mzn-stat: circuitNumber1NumberOfConflicts=16733
%%%mzn-stat: circuitNumber1GacPrunings=648998
%%%mzn-stat: circuitNumber1PropagationsThatGacPruned=195833
%%%mzn-stat: circuitNumber1TotalPruningHallSetSize=1727958
%%%mzn-stat: circuitNumber1NumberOfPruningExplanations=648998
%%%mzn-stat: circuitNumber1MaxPruningHallSetSize=93
%%%mzn-stat: circuitNumber1TotalSccSizeAtPruning=1081194
%%%mzn-stat: circuitNumber1NumberOfSccPruningCalls=195833
%%%mzn-stat: circuitNumber1TotalVarsInvolvedInPruning=534156
%%%mzn-stat: circuitNumber1MaxValuesPrunedFromSingleVar=9
%%%mzn-stat: circuitNumber1HallCircuitChecks=722061
%%%mzn-stat: circuitNumber1HallCircuitPrunings=56653
%%%mzn-stat: circuitNumber1CircuitPreventPrunings=182546
%%%mzn-stat: AverageConflictSize=60.251452122661654
%%%mzn-stat: NumUnitNogoodsLearned=0
%%%mzn-stat: AverageLearnedNogoodLength=69.12347313573076
%%%mzn-stat: AverageBacktrackAmount=0
%%%mzn-stat: AverageLbd=50.65522764158196
%%%mzn-stat: 2AutonomousSearchNumBackupCalled=7328
%%%mzn-stat: 2AutonomousSearchNumPredicatesRemoved=0
%%%mzn-stat: 2AutonomousSearchNumCalls=7338
%%%mzn-stat: 2AutonomousSearchNumPredicatesAdded=8931
%%%mzn-stat: 2AutonomousSearchAverageSizeOfHeap=5.815208503679477
%%%mzn-stat: 2AutonomousSearchNumAssignedPredicatesEncountered=42672
%%%mzn-stat-end
maxleg = 223;
succ = array1d(1..100,[27, 9, 6, 5, 25, 47, 8, 49, 22, 15, 26, 2, 23, 7, 28, 18, 20, 39, 12, 21, 33, 29, 55, 17, 44, 30, 19, 36, 67, 41, 50, 24, 14, 16, 11, 32, 34, 40, 46, 51, 52, 64, 63, 68, 10, 35, 48, 42, 57, 91, 62, 94, 80, 59, 54, 81, 58, 74, 73, 66, 1, 76, 92, 90, 79, 45, 65, 83, 61, 78, 82, 85, 71, 53, 60, 13, 97, 99, 88, 96, 77, 86, 75, 93, 95, 31, 37, 70, 69, 100, 3, 38, 87, 56, 4, 43, 89, 84, 72, 98]);
% time elapsed: 108.88 s
----------
%%%mzn-stat: initTime=0.022980893
%%%mzn-stat: objective=215
%%%mzn-stat: nodes=88644
%%%mzn-stat: restarts=0
%%%mzn-stat: peakDepth=833
%%%mzn-stat: solveTime=126.500905153
%%%mzn-stat: variables=1408
%%%mzn-stat: propagators=1077
%%%mzn-stat: failures=66579
%%%mzn-stat: propagations=2493486
%%%mzn-stat: nogoods=66579
%%%mzn-stat: numAtomicConstraintsPropagated=0
%%%mzn-stat: circuitNumber1PropagationsTotal=427553
%%%mzn-stat: circuitNumber1CircuitConflicts=36472
%%%mzn-stat: circuitNumber1AlldiffConflicts=9
%%%mzn-stat: circuitNumber1TotalFixedEdgesAtConflict=3036825
%%%mzn-stat: circuitNumber1NumberOfConflicts=36481
%%%mzn-stat: circuitNumber1GacPrunings=821271
%%%mzn-stat: circuitNumber1PropagationsThatGacPruned=257872
%%%mzn-stat: circuitNumber1TotalPruningHallSetSize=2036016
%%%mzn-stat: circuitNumber1NumberOfPruningExplanations=821271
%%%mzn-stat: circuitNumber1MaxPruningHallSetSize=93
%%%mzn-stat: circuitNumber1TotalSccSizeAtPruning=1276646
%%%mzn-stat: circuitNumber1NumberOfSccPruningCalls=257872
%%%mzn-stat: circuitNumber1TotalVarsInvolvedInPruning=682607
%%%mzn-stat: circuitNumber1MaxValuesPrunedFromSingleVar=9
%%%mzn-stat: circuitNumber1HallCircuitChecks=1093935
%%%mzn-stat: circuitNumber1HallCircuitPrunings=77096
%%%mzn-stat: circuitNumber1CircuitPreventPrunings=235982
%%%mzn-stat: AverageConflictSize=43.583096772255516
%%%mzn-stat: NumUnitNogoodsLearned=0
%%%mzn-stat: AverageLearnedNogoodLength=71.17622673816068
%%%mzn-stat: AverageBacktrackAmount=0
%%%mzn-stat: AverageLbd=50.50265098604665
%%%mzn-stat: 2AutonomousSearchNumBackupCalled=8000
%%%mzn-stat: 2AutonomousSearchNumPredicatesRemoved=0
%%%mzn-stat: 2AutonomousSearchNumCalls=8011
%%%mzn-stat: 2AutonomousSearchNumPredicatesAdded=10685
%%%mzn-stat: 2AutonomousSearchAverageSizeOfHeap=5.951941081013606
%%%mzn-stat: 2AutonomousSearchNumAssignedPredicatesEncountered=47681
%%%mzn-stat-end
maxleg = 215;
succ = array1d(1..100,[27, 9, 6, 5, 25, 47, 8, 49, 22, 15, 26, 2, 23, 7, 28, 18, 20, 39, 12, 21, 33, 29, 55, 17, 44, 30, 19, 36, 67, 41, 50, 24, 14, 16, 11, 32, 34, 40, 46, 51, 52, 64, 63, 68, 70, 35, 48, 42, 57, 91, 62, 94, 80, 59, 54, 81, 58, 74, 73, 10, 1, 76, 92, 90, 85, 60, 72, 83, 61, 78, 82, 99, 71, 53, 66, 13, 97, 88, 65, 96, 77, 86, 75, 93, 95, 31, 37, 79, 69, 100, 3, 38, 87, 56, 4, 43, 89, 84, 45, 98]);
% time elapsed: 142.31 s
----------
%%%mzn-stat: initTime=0.022980893
%%%mzn-stat: objective=202
%%%mzn-stat: nodes=89372
%%%mzn-stat: restarts=0
%%%mzn-stat: peakDepth=833
%%%mzn-stat: solveTime=126.530990406
%%%mzn-stat: variables=1408
%%%mzn-stat: propagators=1077
%%%mzn-stat: failures=66579
%%%mzn-stat: propagations=2495475
%%%mzn-stat: nogoods=66579
%%%mzn-stat: numAtomicConstraintsPropagated=0
%%%mzn-stat: circuitNumber1PropagationsTotal=427696
%%%mzn-stat: circuitNumber1CircuitConflicts=36472
%%%mzn-stat: circuitNumber1AlldiffConflicts=9
%%%mzn-stat: circuitNumber1TotalFixedEdgesAtConflict=3036825
%%%mzn-stat: circuitNumber1NumberOfConflicts=36481
%%%mzn-stat: circuitNumber1GacPrunings=821640
%%%mzn-stat: circuitNumber1PropagationsThatGacPruned=257945
%%%mzn-stat: circuitNumber1TotalPruningHallSetSize=2037321
%%%mzn-stat: circuitNumber1NumberOfPruningExplanations=821640
%%%mzn-stat: circuitNumber1MaxPruningHallSetSize=93
%%%mzn-stat: circuitNumber1TotalSccSizeAtPruning=1277014
%%%mzn-stat: circuitNumber1NumberOfSccPruningCalls=257945
%%%mzn-stat: circuitNumber1TotalVarsInvolvedInPruning=682936
%%%mzn-stat: circuitNumber1MaxValuesPrunedFromSingleVar=9
%%%mzn-stat: circuitNumber1HallCircuitChecks=1094421
%%%mzn-stat: circuitNumber1HallCircuitPrunings=77101
%%%mzn-stat: circuitNumber1CircuitPreventPrunings=236024
%%%mzn-stat: AverageConflictSize=43.583096772255516
%%%mzn-stat: NumUnitNogoodsLearned=0
%%%mzn-stat: AverageLearnedNogoodLength=71.17622673816068
%%%mzn-stat: AverageBacktrackAmount=0
%%%mzn-stat: AverageLbd=50.50265098604665
%%%mzn-stat: 2AutonomousSearchNumBackupCalled=8667
%%%mzn-stat: 2AutonomousSearchNumPredicatesRemoved=0
%%%mzn-stat: 2AutonomousSearchNumCalls=8679
%%%mzn-stat: 2AutonomousSearchNumPredicatesAdded=10685
%%%mzn-stat: 2AutonomousSearchAverageSizeOfHeap=6.070975918884664
%%%mzn-stat: 2AutonomousSearchNumAssignedPredicatesEncountered=52690
%%%mzn-stat-end
maxleg = 202;
succ = array1d(1..100,[27, 9, 6, 5, 25, 47, 8, 49, 22, 15, 26, 2, 23, 7, 28, 18, 20, 39, 12, 21, 33, 29, 55, 17, 44, 30, 19, 36, 67, 41, 50, 24, 14, 16, 11, 32, 34, 40, 46, 51, 52, 64, 63, 68, 70, 35, 48, 42, 57, 91, 62, 94, 80, 59, 71, 81, 58, 74, 31, 10, 1, 76, 92, 90, 85, 60, 72, 83, 61, 78, 73, 99, 82, 53, 66, 13, 97, 88, 65, 96, 77, 86, 75, 93, 95, 54, 37, 79, 69, 100, 3, 38, 87, 56, 4, 43, 89, 84, 45, 98]);
% time elapsed: 142.34 s
----------
==========
% time elapsed: 142.35 s
%%%mzn-stat: initTime=0.022980893
%%%mzn-stat: objective=202
%%%mzn-stat: nodes=89408
%%%mzn-stat: restarts=0
%%%mzn-stat: peakDepth=833
%%%mzn-stat: solveTime=126.547452809
%%%mzn-stat: variables=1408
%%%mzn-stat: propagators=1077
%%%mzn-stat: failures=66586
%%%mzn-stat: propagations=2496136
%%%mzn-stat: nogoods=66586
%%%mzn-stat: numAtomicConstraintsPropagated=0
%%%mzn-stat: circuitNumber1PropagationsTotal=427781
%%%mzn-stat: circuitNumber1CircuitConflicts=36479
%%%mzn-stat: circuitNumber1AlldiffConflicts=9
%%%mzn-stat: circuitNumber1TotalFixedEdgesAtConflict=3036893
%%%mzn-stat: circuitNumber1NumberOfConflicts=36488
%%%mzn-stat: circuitNumber1GacPrunings=821904
%%%mzn-stat: circuitNumber1PropagationsThatGacPruned=257987
%%%mzn-stat: circuitNumber1TotalPruningHallSetSize=2038969
%%%mzn-stat: circuitNumber1NumberOfPruningExplanations=821904
%%%mzn-stat: circuitNumber1MaxPruningHallSetSize=97
%%%mzn-stat: circuitNumber1TotalSccSizeAtPruning=1277912
%%%mzn-stat: circuitNumber1NumberOfSccPruningCalls=257987
%%%mzn-stat: circuitNumber1TotalVarsInvolvedInPruning=683190
%%%mzn-stat: circuitNumber1MaxValuesPrunedFromSingleVar=9
%%%mzn-stat: circuitNumber1HallCircuitChecks=1094602
%%%mzn-stat: circuitNumber1HallCircuitPrunings=77103
%%%mzn-stat: circuitNumber1CircuitPreventPrunings=236052
%%%mzn-stat: AverageConflictSize=43.578860421109546
%%%mzn-stat: NumUnitNogoodsLearned=1
%%%mzn-stat: AverageLearnedNogoodLength=71.17215330549965
%%%mzn-stat: AverageBacktrackAmount=0
%%%mzn-stat: AverageLbd=50.49764214699787
%%%mzn-stat: 2AutonomousSearchNumBackupCalled=8667
%%%mzn-stat: 2AutonomousSearchNumPredicatesRemoved=0
%%%mzn-stat: 2AutonomousSearchNumCalls=8679
%%%mzn-stat: 2AutonomousSearchNumPredicatesAdded=11574
%%%mzn-stat: 2AutonomousSearchAverageSizeOfHeap=6.070975918884664
%%%mzn-stat: 2AutonomousSearchNumAssignedPredicatesEncountered=52690
%%%mzn-stat-end
